500
1000
495
494
494
493
492
491
491
490
490
489
489
488
488
487
487
487
485
485
485
484
484
483
483
482
481
479
479
479
478
478
478
476
476
475
474
474
474
474
472
470
469
468
468
467
466
466
466
466
465
465
465
464
464
463
462
462
461
461
460
459
459
456
455
452
452
452
451
450
449
449
449
449
449
448
448
446
442
442
441
441
441
440
440
440
439
439
438
437
437
437
435
435
434
433
432
431
431
431
431
431
430
429
429
427
427
427
426
426
425
423
422
420
420
419
418
415
414
414
414
413
413
413
413
410
409
409
408
408
407
406
406
406
405
404
404
404
403
402
402
401
400
400
399
398
393
393
392
391
391
389
389
387
387
385
385
384
383
382
382
381
381
381
379
379
378
375
373
372
371
370
370
370
368
367
367
366
365
364
363
363
362
361
361
360
360
360
359
358
357
357
357
356
356
355
354
353
350
350
348
347
347
347
346
346
345
345
344
343
343
343
342
342
341
341
341
341
341
341
341
340
340
337
337
335
335
335
335
333
332
332
332
331
330
329
329
328
327
327
326
325
325
325
324
324
322
322
322
321
321
319
317
316
316
316
316
316
315
315
313
313
313
313
312
311
310
309
308
307
307
307
305
304
304
304
302
302
301
301
301
301
300
300
299
299
299
298
297
296
296
296
296
296
294
294
292
292
290
290
289
288
288
287
287
287
287
286
286
285
285
284
283
282
282
281
281
281
280
280
280
278
278
278
278
276
276
275
274
273
273
272
271
271
271
269
269
266
265
265
264
264
263
263
262
262
262
261
261
258
258
257
256
256
255
254
254
254
254
253
253
253
251
251
250
250
250
250
250
249
249
248
248
248
248
248
247
247
247
246
246
246
246
243
241
240
240
238
238
238
238
237
237
237
237
236
236
235
235
234
232
230
229
229
229
228
228
228
228
228
227
227
226
226
225
224
224
224
223
222
222
222
221
220
220
220
219
219
216
213
213
213
212
212
212
212
210
210
209
209
208
208
208
207
207
207
207
206
206
206
206
204
204
203
203
202
202
202
202
201
201
199
199
198
197
196
196
195
195
195
194
193
193
192
190
190
189
188
187
186
186
186
185
185
184
184
184
184
183
182
180
178
175
173
171
170
170
169
168
167
167
167
